(set-info :source |Automatically generated from HOL4 by SmtLib.goal_to_SmtLib.
Copyright (c) 2011 Tjark Weber. All rights reserved.|)
(set-info :smt-lib-version 2.0)
(declare-fun v0_MEM () (Array (_ BitVec 64) (_ BitVec 8)))
(declare-fun v1_R2 () (_ BitVec 64))
(declare-fun v2_R2_ () (_ BitVec 64))
(assert (and (= (bvand (bvand (bvand (bvand (ite (and (bvule (_ bv2148532224 64) (concat (select v0_MEM (bvadd v1_R2 (_ bv0 64))) (concat (select v0_MEM (bvadd v1_R2 (_ bv1 64))) (concat (select v0_MEM (bvadd v1_R2 (_ bv2 64))) (concat (select v0_MEM (bvadd v1_R2 (_ bv3 64))) (concat (select v0_MEM (bvadd v1_R2 (_ bv4 64))) (concat (select v0_MEM (bvadd v1_R2 (_ bv5 64))) (concat (select v0_MEM (bvadd v1_R2 (_ bv6 64))) (select v0_MEM (bvadd v1_R2 (_ bv7 64))))))))))) (bvult (concat (select v0_MEM (bvadd v1_R2 (_ bv0 64))) (concat (select v0_MEM (bvadd v1_R2 (_ bv1 64))) (concat (select v0_MEM (bvadd v1_R2 (_ bv2 64))) (concat (select v0_MEM (bvadd v1_R2 (_ bv3 64))) (concat (select v0_MEM (bvadd v1_R2 (_ bv4 64))) (concat (select v0_MEM (bvadd v1_R2 (_ bv5 64))) (concat (select v0_MEM (bvadd v1_R2 (_ bv6 64))) (select v0_MEM (bvadd v1_R2 (_ bv7 64)))))))))) (_ bv2148794240 64))) (_ bv1 1) (_ bv0 1)) (bvand (ite (= (bvand (concat (select v0_MEM (bvadd v1_R2 (_ bv0 64))) (concat (select v0_MEM (bvadd v1_R2 (_ bv1 64))) (concat (select v0_MEM (bvadd v1_R2 (_ bv2 64))) (concat (select v0_MEM (bvadd v1_R2 (_ bv3 64))) (concat (select v0_MEM (bvadd v1_R2 (_ bv4 64))) (concat (select v0_MEM (bvadd v1_R2 (_ bv5 64))) (concat (select v0_MEM (bvadd v1_R2 (_ bv6 64))) (select v0_MEM (bvadd v1_R2 (_ bv7 64)))))))))) (_ bv7 64)) (_ bv0 64)) (_ bv1 1) (_ bv0 1)) (bvand (ite (and (bvule (_ bv2148532224 64) v1_R2) (bvult v1_R2 (_ bv2148794240 64))) (_ bv1 1) (_ bv0 1)) (bvand (ite (= (bvand v1_R2 (_ bv7 64)) (_ bv0 64)) (_ bv1 1) (_ bv0 1)) (_ bv1 1))))) (bvand (bvand (ite (and (bvule (_ bv2148532224 64) (concat (select v0_MEM (bvadd v2_R2_ (_ bv0 64))) (concat (select v0_MEM (bvadd v2_R2_ (_ bv1 64))) (concat (select v0_MEM (bvadd v2_R2_ (_ bv2 64))) (concat (select v0_MEM (bvadd v2_R2_ (_ bv3 64))) (concat (select v0_MEM (bvadd v2_R2_ (_ bv4 64))) (concat (select v0_MEM (bvadd v2_R2_ (_ bv5 64))) (concat (select v0_MEM (bvadd v2_R2_ (_ bv6 64))) (select v0_MEM (bvadd v2_R2_ (_ bv7 64))))))))))) (bvult (concat (select v0_MEM (bvadd v2_R2_ (_ bv0 64))) (concat (select v0_MEM (bvadd v2_R2_ (_ bv1 64))) (concat (select v0_MEM (bvadd v2_R2_ (_ bv2 64))) (concat (select v0_MEM (bvadd v2_R2_ (_ bv3 64))) (concat (select v0_MEM (bvadd v2_R2_ (_ bv4 64))) (concat (select v0_MEM (bvadd v2_R2_ (_ bv5 64))) (concat (select v0_MEM (bvadd v2_R2_ (_ bv6 64))) (select v0_MEM (bvadd v2_R2_ (_ bv7 64)))))))))) (_ bv2148794240 64))) (_ bv1 1) (_ bv0 1)) (bvand (ite (= (bvand (concat (select v0_MEM (bvadd v2_R2_ (_ bv0 64))) (concat (select v0_MEM (bvadd v2_R2_ (_ bv1 64))) (concat (select v0_MEM (bvadd v2_R2_ (_ bv2 64))) (concat (select v0_MEM (bvadd v2_R2_ (_ bv3 64))) (concat (select v0_MEM (bvadd v2_R2_ (_ bv4 64))) (concat (select v0_MEM (bvadd v2_R2_ (_ bv5 64))) (concat (select v0_MEM (bvadd v2_R2_ (_ bv6 64))) (select v0_MEM (bvadd v2_R2_ (_ bv7 64)))))))))) (_ bv7 64)) (_ bv0 64)) (_ bv1 1) (_ bv0 1)) (bvand (ite (and (bvule (_ bv2148532224 64) v2_R2_) (bvult v2_R2_ (_ bv2148794240 64))) (_ bv1 1) (_ bv0 1)) (bvand (ite (= (bvand v2_R2_ (_ bv7 64)) (_ bv0 64)) (_ bv1 1) (_ bv0 1)) (_ bv1 1))))) (bvand (bvand (bvand (_ bv1 1) (_ bv1 1)) (bvand (_ bv1 1) (_ bv1 1))) (ite (and (= (bvlshr v1_R2 (_ bv6 64)) (bvlshr v2_R2_ (_ bv6 64))) (= (bvlshr (concat (select v0_MEM (bvadd v1_R2 (_ bv0 64))) (concat (select v0_MEM (bvadd v1_R2 (_ bv1 64))) (concat (select v0_MEM (bvadd v1_R2 (_ bv2 64))) (concat (select v0_MEM (bvadd v1_R2 (_ bv3 64))) (concat (select v0_MEM (bvadd v1_R2 (_ bv4 64))) (concat (select v0_MEM (bvadd v1_R2 (_ bv5 64))) (concat (select v0_MEM (bvadd v1_R2 (_ bv6 64))) (select v0_MEM (bvadd v1_R2 (_ bv7 64)))))))))) (_ bv6 64)) (bvlshr (concat (select v0_MEM (bvadd v2_R2_ (_ bv0 64))) (concat (select v0_MEM (bvadd v2_R2_ (_ bv1 64))) (concat (select v0_MEM (bvadd v2_R2_ (_ bv2 64))) (concat (select v0_MEM (bvadd v2_R2_ (_ bv3 64))) (concat (select v0_MEM (bvadd v2_R2_ (_ bv4 64))) (concat (select v0_MEM (bvadd v2_R2_ (_ bv5 64))) (concat (select v0_MEM (bvadd v2_R2_ (_ bv6 64))) (select v0_MEM (bvadd v2_R2_ (_ bv7 64)))))))))) (_ bv6 64)))) (_ bv1 1) (_ bv0 1))))) (_ bv1 1)) (bvand (bvand (bvand (bvand (bvnot (bvand (bvnot (ite (and (bvule (_ bv2148532224 64) v1_R2) (bvult v1_R2 (_ bv2148794240 64))) (_ bv1 1) (_ bv0 1))) (bvand (ite (= (bvand v1_R2 (_ bv7 64)) (_ bv0 64)) (_ bv1 1) (_ bv0 1)) (_ bv1 1)))) (bvnot (bvand (bvnot (ite (= (bvand v1_R2 (_ bv7 64)) (_ bv0 64)) (_ bv1 1) (_ bv0 1))) (_ bv1 1)))) (bvnot (bvand (bvnot (ite (and (bvule (_ bv2148532224 64) (concat (select v0_MEM (bvadd v1_R2 (_ bv0 64))) (concat (select v0_MEM (bvadd v1_R2 (_ bv1 64))) (concat (select v0_MEM (bvadd v1_R2 (_ bv2 64))) (concat (select v0_MEM (bvadd v1_R2 (_ bv3 64))) (concat (select v0_MEM (bvadd v1_R2 (_ bv4 64))) (concat (select v0_MEM (bvadd v1_R2 (_ bv5 64))) (concat (select v0_MEM (bvadd v1_R2 (_ bv6 64))) (select v0_MEM (bvadd v1_R2 (_ bv7 64))))))))))) (bvult (concat (select v0_MEM (bvadd v1_R2 (_ bv0 64))) (concat (select v0_MEM (bvadd v1_R2 (_ bv1 64))) (concat (select v0_MEM (bvadd v1_R2 (_ bv2 64))) (concat (select v0_MEM (bvadd v1_R2 (_ bv3 64))) (concat (select v0_MEM (bvadd v1_R2 (_ bv4 64))) (concat (select v0_MEM (bvadd v1_R2 (_ bv5 64))) (concat (select v0_MEM (bvadd v1_R2 (_ bv6 64))) (select v0_MEM (bvadd v1_R2 (_ bv7 64)))))))))) (_ bv2148794240 64))) (_ bv1 1) (_ bv0 1))) (bvand (ite (= (bvand (concat (select v0_MEM (bvadd v1_R2 (_ bv0 64))) (concat (select v0_MEM (bvadd v1_R2 (_ bv1 64))) (concat (select v0_MEM (bvadd v1_R2 (_ bv2 64))) (concat (select v0_MEM (bvadd v1_R2 (_ bv3 64))) (concat (select v0_MEM (bvadd v1_R2 (_ bv4 64))) (concat (select v0_MEM (bvadd v1_R2 (_ bv5 64))) (concat (select v0_MEM (bvadd v1_R2 (_ bv6 64))) (select v0_MEM (bvadd v1_R2 (_ bv7 64)))))))))) (_ bv7 64)) (_ bv0 64)) (_ bv1 1) (_ bv0 1)) (bvand (ite (and (bvule (_ bv2148532224 64) v1_R2) (bvult v1_R2 (_ bv2148794240 64))) (_ bv1 1) (_ bv0 1)) (bvand (ite (= (bvand v1_R2 (_ bv7 64)) (_ bv0 64)) (_ bv1 1) (_ bv0 1)) (_ bv1 1))))))) (bvnot (bvand (bvnot (ite (= (bvand (concat (select v0_MEM (bvadd v1_R2 (_ bv0 64))) (concat (select v0_MEM (bvadd v1_R2 (_ bv1 64))) (concat (select v0_MEM (bvadd v1_R2 (_ bv2 64))) (concat (select v0_MEM (bvadd v1_R2 (_ bv3 64))) (concat (select v0_MEM (bvadd v1_R2 (_ bv4 64))) (concat (select v0_MEM (bvadd v1_R2 (_ bv5 64))) (concat (select v0_MEM (bvadd v1_R2 (_ bv6 64))) (select v0_MEM (bvadd v1_R2 (_ bv7 64)))))))))) (_ bv7 64)) (_ bv0 64)) (_ bv1 1) (_ bv0 1))) (bvand (ite (and (bvule (_ bv2148532224 64) v1_R2) (bvult v1_R2 (_ bv2148794240 64))) (_ bv1 1) (_ bv0 1)) (bvand (ite (= (bvand v1_R2 (_ bv7 64)) (_ bv0 64)) (_ bv1 1) (_ bv0 1)) (_ bv1 1)))))) (bvand (bvand (bvand (bvnot (bvand (bvnot (ite (and (bvule (_ bv2148532224 64) v2_R2_) (bvult v2_R2_ (_ bv2148794240 64))) (_ bv1 1) (_ bv0 1))) (bvand (ite (= (bvand v2_R2_ (_ bv7 64)) (_ bv0 64)) (_ bv1 1) (_ bv0 1)) (_ bv1 1)))) (bvnot (bvand (bvnot (ite (= (bvand v2_R2_ (_ bv7 64)) (_ bv0 64)) (_ bv1 1) (_ bv0 1))) (_ bv1 1)))) (bvnot (bvand (bvnot (ite (and (bvule (_ bv2148532224 64) (concat (select v0_MEM (bvadd v2_R2_ (_ bv0 64))) (concat (select v0_MEM (bvadd v2_R2_ (_ bv1 64))) (concat (select v0_MEM (bvadd v2_R2_ (_ bv2 64))) (concat (select v0_MEM (bvadd v2_R2_ (_ bv3 64))) (concat (select v0_MEM (bvadd v2_R2_ (_ bv4 64))) (concat (select v0_MEM (bvadd v2_R2_ (_ bv5 64))) (concat (select v0_MEM (bvadd v2_R2_ (_ bv6 64))) (select v0_MEM (bvadd v2_R2_ (_ bv7 64))))))))))) (bvult (concat (select v0_MEM (bvadd v2_R2_ (_ bv0 64))) (concat (select v0_MEM (bvadd v2_R2_ (_ bv1 64))) (concat (select v0_MEM (bvadd v2_R2_ (_ bv2 64))) (concat (select v0_MEM (bvadd v2_R2_ (_ bv3 64))) (concat (select v0_MEM (bvadd v2_R2_ (_ bv4 64))) (concat (select v0_MEM (bvadd v2_R2_ (_ bv5 64))) (concat (select v0_MEM (bvadd v2_R2_ (_ bv6 64))) (select v0_MEM (bvadd v2_R2_ (_ bv7 64)))))))))) (_ bv2148794240 64))) (_ bv1 1) (_ bv0 1))) (bvand (ite (= (bvand (concat (select v0_MEM (bvadd v2_R2_ (_ bv0 64))) (concat (select v0_MEM (bvadd v2_R2_ (_ bv1 64))) (concat (select v0_MEM (bvadd v2_R2_ (_ bv2 64))) (concat (select v0_MEM (bvadd v2_R2_ (_ bv3 64))) (concat (select v0_MEM (bvadd v2_R2_ (_ bv4 64))) (concat (select v0_MEM (bvadd v2_R2_ (_ bv5 64))) (concat (select v0_MEM (bvadd v2_R2_ (_ bv6 64))) (select v0_MEM (bvadd v2_R2_ (_ bv7 64)))))))))) (_ bv7 64)) (_ bv0 64)) (_ bv1 1) (_ bv0 1)) (bvand (ite (and (bvule (_ bv2148532224 64) v2_R2_) (bvult v2_R2_ (_ bv2148794240 64))) (_ bv1 1) (_ bv0 1)) (bvand (ite (= (bvand v2_R2_ (_ bv7 64)) (_ bv0 64)) (_ bv1 1) (_ bv0 1)) (_ bv1 1))))))) (bvnot (bvand (bvnot (ite (= (bvand (concat (select v0_MEM (bvadd v2_R2_ (_ bv0 64))) (concat (select v0_MEM (bvadd v2_R2_ (_ bv1 64))) (concat (select v0_MEM (bvadd v2_R2_ (_ bv2 64))) (concat (select v0_MEM (bvadd v2_R2_ (_ bv3 64))) (concat (select v0_MEM (bvadd v2_R2_ (_ bv4 64))) (concat (select v0_MEM (bvadd v2_R2_ (_ bv5 64))) (concat (select v0_MEM (bvadd v2_R2_ (_ bv6 64))) (select v0_MEM (bvadd v2_R2_ (_ bv7 64)))))))))) (_ bv7 64)) (_ bv0 64)) (_ bv1 1) (_ bv0 1))) (bvand (ite (and (bvule (_ bv2148532224 64) v2_R2_) (bvult v2_R2_ (_ bv2148794240 64))) (_ bv1 1) (_ bv0 1)) (bvand (ite (= (bvand v2_R2_ (_ bv7 64)) (_ bv0 64)) (_ bv1 1) (_ bv0 1)) (_ bv1 1)))))))) (_ bv1 1)) (not (= v1_R2 v2_R2_))))
(check-sat)
(exit)
